2025-10-21 13:37:15,972 - INFO - 📌 第一个 epoch：默认所有模块使用 checkpoint
2025-10-21 13:37:19,279 - INFO - Epoch 1 completed in 3.318636 seconds
2025-10-21 13:37:20,329 - INFO - torch.cuda.max_memory_reserved() : 4.37890625
2025-10-21 13:37:23,124 - INFO - 
[🔁 拟合反向传播时间模型]
2025-10-21 13:37:23,125 - INFO - 总反向传播时间: 2.775310s
2025-10-21 13:37:23,125 - INFO - 拟合模型: backward_total ≈ 2 × (A + B) + b
2025-10-21 13:37:23,125 - INFO - A = 2.103771, B = 0.198683, b = 0.472856s
2025-10-21 13:37:23,148 - INFO - Set parameter LicenseID to value 2706656
2025-10-21 13:37:23,153 - INFO - Set parameter LogToConsole to value 1
2025-10-21 13:37:23,153 - INFO - Set parameter LogFile to value ""
2025-10-21 13:37:23,153 - INFO - Set parameter Threads to value 12
2025-10-21 13:37:23,153 - INFO - Set parameter TimeLimit to value 3600
2025-10-21 13:37:23,153 - INFO - Set parameter OptimalityTol to value 0.0001
2025-10-21 13:37:23,153 - INFO - Set parameter IntFeasTol to value 1e-05
2025-10-21 13:37:23,153 - INFO - Set parameter StartNodeLimit to value 10000000
2025-10-21 13:37:23,206 - INFO - Set parameter TimeLimit to value 3600
2025-10-21 13:37:23,206 - INFO - 
2025-10-21 13:37:23,206 - INFO - 
2025-10-21 13:37:23,206 - INFO - Restarting solve
2025-10-21 13:37:23,206 - INFO - 
2025-10-21 13:37:23,207 - INFO - 
2025-10-21 13:37:23,208 - INFO - Gurobi Optimizer version 12.0.3 build v12.0.3rc0 (linux64 - "Ubuntu 20.04.6 LTS")
2025-10-21 13:37:23,208 - INFO - 
2025-10-21 13:37:23,208 - INFO - CPU model: Intel(R) Xeon(R) Platinum 8260 CPU @ 2.40GHz, instruction set [SSE2|AVX|AVX2|AVX512]
2025-10-21 13:37:23,208 - INFO - Thread count: 48 physical cores, 96 logical processors, using up to 12 threads
2025-10-21 13:37:23,208 - INFO - 
2025-10-21 13:37:23,208 - INFO - Non-default parameters:
2025-10-21 13:37:23,208 - INFO - TimeLimit  3600
2025-10-21 13:37:23,208 - INFO - OptimalityTol  0.0001
2025-10-21 13:37:23,208 - INFO - StartNodeLimit  10000000
2025-10-21 13:37:23,208 - INFO - Threads  12
2025-10-21 13:37:23,209 - INFO - 
2025-10-21 13:37:23,209 - INFO - Optimize a model with 5603 rows, 3584 columns and 15200 nonzeros
2025-10-21 13:37:23,209 - INFO - Model fingerprint: 0x2059a9b3
2025-10-21 13:37:23,209 - INFO - Variable types: 1024 continuous, 2560 integer (2560 binary)
2025-10-21 13:37:23,209 - INFO - Coefficient statistics:
2025-10-21 13:37:23,209 - INFO -   Matrix range     [1e+00, 2e+15]
2025-10-21 13:37:23,209 - INFO -   Objective range  [6e+04, 6e+05]
2025-10-21 13:37:23,209 - INFO -   Bounds range     [1e+00, 6e+15]
2025-10-21 13:37:23,209 - INFO -   RHS range        [1e+00, 6e+15]
2025-10-21 13:37:23,209 - INFO - Warning: Model contains large matrix coefficient range
2025-10-21 13:37:23,209 - INFO - Warning: Model contains large rhs
2025-10-21 13:37:23,209 - INFO - Warning: Model contains large bounds
2025-10-21 13:37:23,209 - INFO -          Consider reformulating model or setting NumericFocus parameter
2025-10-21 13:37:23,209 - INFO -          to avoid numerical issues.
2025-10-21 13:37:23,223 - INFO - Presolve removed 4283 rows and 1964 columns
2025-10-21 13:37:23,223 - INFO - Presolve time: 0.01s
2025-10-21 13:37:23,223 - INFO - Presolved: 1320 rows, 1620 columns, 4514 nonzeros
2025-10-21 13:37:23,224 - INFO - Variable types: 0 continuous, 1620 integer (1095 binary)
2025-10-21 13:37:23,235 - INFO - 
2025-10-21 13:37:23,235 - INFO - Root relaxation: objective 1.076042e+07, 456 iterations, 0.00 seconds (0.01 work units)
2025-10-21 13:37:23,241 - INFO - 
2025-10-21 13:37:23,242 - INFO -     Nodes    |    Current Node    |     Objective Bounds      |     Work
2025-10-21 13:37:23,242 - INFO -  Expl Unexpl |  Obj  Depth IntInf | Incumbent    BestBd   Gap | It/Node Time
2025-10-21 13:37:23,242 - INFO - 
2025-10-21 13:37:23,242 - INFO -      0     0 1.0760e+07    0   78          - 1.0760e+07      -     -    0s
2025-10-21 13:37:23,244 - INFO - H    0     0                    1.107825e+07 1.0760e+07  2.87%     -    0s
2025-10-21 13:37:23,275 - INFO -      0     0 1.0812e+07    0  137 1.1078e+07 1.0812e+07  2.40%     -    0s
2025-10-21 13:37:23,290 - INFO -      0     0     cutoff    0      1.1078e+07 1.1078e+07  0.00%     -    0s
2025-10-21 13:37:23,290 - INFO - 
2025-10-21 13:37:23,290 - INFO - Explored 1 nodes (817 simplex iterations) in 0.08 seconds (0.05 work units)
2025-10-21 13:37:23,290 - INFO - Thread count was 12 (of 96 available processors)
2025-10-21 13:37:23,290 - INFO - 
2025-10-21 13:37:23,290 - INFO - Solution count 1: 1.10783e+07 
2025-10-21 13:37:23,290 - INFO - 
2025-10-21 13:37:23,290 - INFO - Optimal solution found (tolerance 1.00e-04)
2025-10-21 13:37:23,290 - INFO - Best objective 1.107825200000e+07, best bound 1.107825200000e+07, gap 0.0000%
2025-10-21 13:37:23,301 - INFO - 规划前的显存GB：5.0
2025-10-21 13:37:23,301 - INFO - 规划后的显存GB：3.8914432525634766
2025-10-21 13:37:23,301 - INFO - ✅ 最优策略：[1, 1, 1, 1, 1, 1, 0, 0, 0, 0, 0, 0, 0, 0, 0, 0]
2025-10-21 13:37:23,301 - INFO - 📌 checkpoint 的欧氏长度:, [283, 324]
2025-10-21 13:37:23,301 - INFO - 📌 checkpoint 的余弦长度:, [40, 80, 121, 161, 202, 242, 283, 324]
2025-10-21 13:37:23,301 - INFO - 💾 最终显存峰值：%.2f MB % 8692.373695373535
2025-10-21 13:37:23,301 - INFO - Epoch 2 completed in 2.971971 seconds
2025-10-21 13:37:23,301 - INFO - torch.cuda.max_memory_reserved() : 4.37890625
2025-10-21 13:37:25,734 - INFO - Epoch 3 completed in 2.431701 seconds
2025-10-21 13:37:25,734 - INFO - 
====================== [第1个 Epoch 收集统计数据] ======================
2025-10-21 13:37:25,734 - INFO - 
🔍 EUCLIDEAN modules:
2025-10-21 13:37:25,734 - INFO - [Shapelet  40] forward_avg=0.003876s over 12 calls | peak=343.57MB | final=0.00MB
2025-10-21 13:37:25,734 - INFO - [Shapelet  80] forward_avg=0.004115s over 12 calls | peak=601.19MB | final=0.00MB
2025-10-21 13:37:25,735 - INFO - [Shapelet 121] forward_avg=0.005102s over 12 calls | peak=791.72MB | final=0.00MB
2025-10-21 13:37:25,735 - INFO - [Shapelet 161] forward_avg=0.005445s over 12 calls | peak=905.43MB | final=0.00MB
2025-10-21 13:37:25,735 - INFO - [Shapelet 202] forward_avg=0.005696s over 12 calls | peak=946.48MB | final=0.00MB
2025-10-21 13:37:25,735 - INFO - [Shapelet 242] forward_avg=0.005196s over 12 calls | peak=915.59MB | final=0.00MB
2025-10-21 13:37:25,735 - INFO - [Shapelet 283] forward_avg=0.004693s over 12 calls | peak=810.62MB | final=0.00MB
2025-10-21 13:37:25,735 - INFO - [Shapelet 324] forward_avg=0.004335s over 12 calls | peak=628.61MB | final=0.00MB
2025-10-21 13:37:25,735 - INFO - 
🔍 COSINE modules:
2025-10-21 13:37:25,735 - INFO - [Shapelet  40] forward_avg=0.002036s over 12 calls | peak=220.75MB | final=0.00MB
2025-10-21 13:37:25,735 - INFO - [Shapelet  80] forward_avg=0.002035s over 12 calls | peak=390.83MB | final=0.00MB
2025-10-21 13:37:25,736 - INFO - [Shapelet 121] forward_avg=0.002588s over 12 calls | peak=515.69MB | final=0.00MB
2025-10-21 13:37:25,736 - INFO - [Shapelet 161] forward_avg=0.002834s over 12 calls | peak=589.82MB | final=0.00MB
2025-10-21 13:37:25,736 - INFO - [Shapelet 202] forward_avg=0.003090s over 12 calls | peak=615.21MB | final=0.00MB
2025-10-21 13:37:25,736 - INFO - [Shapelet 242] forward_avg=0.002916s over 12 calls | peak=592.28MB | final=0.00MB
2025-10-21 13:37:25,736 - INFO - [Shapelet 283] forward_avg=0.002334s over 12 calls | peak=520.11MB | final=0.00MB
2025-10-21 13:37:25,736 - INFO - [Shapelet 324] forward_avg=0.002145s over 12 calls | peak=396.44MB | final=0.00MB
2025-10-21 13:37:25,736 - INFO - 
🔍 CROSS modules:
2025-10-21 13:37:25,736 - INFO - [Shapelet  40] forward_avg=0.002789s over 12 calls
2025-10-21 13:37:25,736 - INFO - [Shapelet  80] forward_avg=0.000567s over 12 calls
2025-10-21 13:37:25,736 - INFO - [Shapelet 121] forward_avg=0.000636s over 12 calls
2025-10-21 13:37:25,736 - INFO - [Shapelet 161] forward_avg=0.000757s over 12 calls
2025-10-21 13:37:25,736 - INFO - [Shapelet 202] forward_avg=0.000848s over 12 calls
2025-10-21 13:37:25,736 - INFO - [Shapelet 242] forward_avg=0.000823s over 12 calls
2025-10-21 13:37:25,736 - INFO - [Shapelet 283] forward_avg=0.000883s over 12 calls
2025-10-21 13:37:25,736 - INFO - [Shapelet 324] forward_avg=0.000974s over 12 calls
2025-10-21 13:37:25,736 - INFO - 
💾 模型第一次反向传播阶段的显存峰值（所有模块中的最大值）: 4376.74 MB
2025-10-21 13:37:25,736 - INFO - 
💾 模型初始显存: 23.05 MB
2025-10-21 13:37:25,736 - INFO - =======================================================================

2025-10-21 13:37:25,736 - INFO - torch.cuda.max_memory_reserved() : 5.478515625
2025-10-21 13:37:28,088 - INFO - Epoch 4 completed in 2.350958 seconds
2025-10-21 13:37:28,088 - INFO - torch.cuda.max_memory_reserved() : 5.478515625
2025-10-21 13:37:30,660 - INFO - Epoch 5 completed in 2.571210 seconds
2025-10-21 13:37:30,661 - INFO - torch.cuda.max_memory_reserved() : 5.478515625
2025-10-21 13:37:33,069 - INFO - Epoch 6 completed in 2.406614 seconds
2025-10-21 13:37:33,069 - INFO - torch.cuda.max_memory_reserved() : 5.478515625
2025-10-21 13:37:35,529 - INFO - Epoch 7 completed in 2.459308 seconds
2025-10-21 13:37:35,529 - INFO - torch.cuda.max_memory_reserved() : 5.478515625
2025-10-21 13:37:37,964 - INFO - Epoch 8 completed in 2.434424 seconds
2025-10-21 13:37:37,964 - INFO - torch.cuda.max_memory_reserved() : 5.478515625
2025-10-21 13:37:40,363 - INFO - Epoch 9 completed in 2.398789 seconds
2025-10-21 13:37:40,364 - INFO - torch.cuda.max_memory_reserved() : 5.478515625
2025-10-21 13:37:42,811 - INFO - Epoch 10 completed in 2.446925 seconds
2025-10-21 13:37:43,860 - INFO - torch.cuda.max_memory_reserved() : 5.478515625
2025-10-21 13:37:43,861 - INFO - !!!采用策略后的几个epoch 平均时间:2.437491238117218
2025-10-21 13:37:43,861 - INFO - 



